32	0

0	3	2	3	5
3	1	4
2	1	4
10	2	6	7
9	2	6	7
4	3	8	9	10
4	3	8	9	10
8	2	11	12
9	2	11	12
10	2	11	13
6	2	14	15
2	1	13
7	2	14	15
6	3	16	17	18
5	3	16	17	18
4	1	19
8	3	22	23	25
7	3	20	21	25
3	3	20	21	25
9	1	26
6	2	22	23
3	1	26
2	1	24
1	1	26
8	1	26
1	3	27	28	29
7	1	31
6	1	30
10	1	32
1	1	31
10	1	32
0	0
